assets/Week10/painting.lp
maximize 
3x + 2y
subject to
4x + 2y < 17
x + 2y < 9
x + y < 6
x >= 0
y >= 0
integer
x
y
end